p cnf 130 160
5 17 37 51 0
5 17 37 -51 0
24 28 37 52 0
24 28 37 -52 0
24 -28 40 53 0
24 -28 40 -53 0
4 -28 -40 54 0
4 -28 -40 -54 0
4 -24 29 55 0
4 -24 29 -55 0
13 -24 -29 56 0
13 -24 -29 -56 0
-13 -24 -29 57 0
-13 -24 -29 -57 0
-4 10 -17 58 0
-4 10 -17 -58 0
-4 -10 -17 59 0
-4 -10 -17 -59 0
26 33 -37 60 0
26 33 -37 -60 0
5 -26 34 61 0
5 -26 34 -61 0
33 -34 48 62 0
33 -34 48 -62 0
33 -37 -48 63 0
33 -37 -48 -63 0
5 -33 -37 64 0
5 -33 -37 -64 0
2 -5 10 65 0
2 -5 10 -65 0
2 -5 -10 66 0
2 -5 -10 -66 0
-2 15 47 67 0
-2 15 47 -67 0
15 30 -47 68 0
15 30 -47 -68 0
-2 -15 30 69 0
-2 -15 30 -69 0
20 -30 42 70 0
20 -30 42 -70 0
-2 20 -30 71 0
-2 20 -30 -71 0
13 -20 29 72 0
13 -20 29 -72 0
13 16 -20 73 0
13 16 -20 -73 0
-13 -20 31 74 0
-13 -20 31 -74 0
-13 16 -31 75 0
-13 16 -31 -75 0
-16 23 38 76 0
-16 23 38 -76 0
-16 19 -38 77 0
-16 19 -38 -77 0
-19 23 -38 78 0
-19 23 -38 -78 0
14 -23 34 79 0
14 -23 34 -79 0
1 14 -34 80 0
1 14 -34 -80 0
-1 9 14 81 0
-1 9 14 -81 0
-1 -9 -23 82 0
-1 -9 -23 -82 0
-14 21 -23 83 0
-14 21 -23 -83 0
-14 -16 -21 84 0
-14 -16 -21 -84 0
25 -35 41 85 0
25 -35 41 -85 0
-25 41 50 86 0
-25 41 50 -86 0
-35 49 -50 87 0
-35 49 -50 -87 0
-25 -49 -50 88 0
-25 -49 -50 -88 0
-19 -48 -49 89 0
-19 -48 -49 -89 0
3 -39 44 90 0
3 -39 44 -90 0
1 3 -44 91 0
1 3 -44 -91 0
9 35 44 92 0
9 35 44 -92 0
-9 -31 44 93 0
-9 -31 44 -93 0
22 25 -44 94 0
22 25 -44 -94 0
-12 -43 46 95 0
-12 -43 46 -95 0
-12 -28 -46 96 0
-12 -28 -46 -96 0
6 35 48 97 0
6 35 48 -97 0
11 18 -48 98 0
11 18 -48 -98 0
22 38 -42 99 0
22 38 -42 -99 0
22 -35 -42 100 0
22 -35 -42 -100 0
-3 11 41 101 0
-3 11 41 -101 0
27 28 -43 102 0
27 28 -43 -102 0
-15 -21 31 103 0
-15 -21 31 -103 0
-33 39 50 104 0
-33 39 50 -104 0
-8 -22 -47 105 0
-8 -22 -47 -105 0
-22 -40 -47 106 0
-22 -40 -47 -106 0
39 44 -46 107 0
39 44 -46 -107 0
-25 -26 47 108 0
-25 -26 47 -108 0
38 43 45 109 0
38 43 45 -109 0
-6 -14 -45 110 0
-6 -14 -45 -110 0
-7 12 36 111 0
-7 12 36 -111 0
8 -11 45 112 0
8 -11 45 -112 0
27 -38 -50 113 0
27 -38 -50 -113 0
7 -11 -36 114 0
7 -11 -36 -114 0
-7 -41 42 115 0
-7 -41 42 -115 0
7 21 23 116 0
7 21 23 -116 0
-18 32 46 117 0
-18 32 46 -117 0
8 19 -36 118 0
8 19 -36 -118 0
-32 -45 -50 119 0
-32 -45 -50 -119 0
7 17 21 120 0
7 17 21 -120 0
6 18 43 121 0
6 18 43 -121 0
-6 24 -27 122 0
-6 24 -27 -122 0
40 -41 49 123 0
40 -41 49 -123 0
-11 12 26 124 0
-11 12 26 -124 0
-3 32 -36 125 0
-3 32 -36 -125 0
-6 36 -44 126 0
-6 36 -44 -126 0
-3 36 42 127 0
-3 36 42 -127 0
-8 -11 -32 128 0
-8 -11 -32 -128 0
-18 -27 -38 129 0
-18 -27 -38 -129 0
-18 -27 -39 130 0
-18 -27 -39 -130 0

